units           metal
atom_style      atomic
lattice			fcc 0.408
dimension       3
boundary        p p s

region          box block 0 80 0 80 0 90
create_box      1 box

# read data
read_data       silver_top.dat add merge 1
read_data       silver_bot.dat add merge 1

# potentials
include	        pot.mod


# outputs
thermo          100
thermo_style    custom step temp

# energy minimization
minimize        1.0e-10 1.0e-10 100000 100000

fix 1 all nvt temp 800 800 100
run 2000000
unfix 1
